Translating instance to solver...

GLPSOL--GLPK LP/MIP Solver 5.0
Parameter(s) specified in the command line:
 --tmlim 28800 --mipgap 0.001 --write /tmp/tmpu55lys1g.glpk.raw --wglp /tmp/tmp1iqglc6o.glpk.glp
 --cpxlp /tmp/tmpko3xu9nl.pyomo.lp
Reading problem data from '/tmp/tmpko3xu9nl.pyomo.lp'...
/tmp/tmpko3xu9nl.pyomo.lp:495603: warning: lower bound of variable 'x2' redefined
/tmp/tmpko3xu9nl.pyomo.lp:495603: warning: upper bound of variable 'x2' redefined
85346 rows, 41622 columns, 197770 non-zeros
41622 integer variables, 41580 of which are binary
537183 lines were read
Writing problem data to '/tmp/tmp1iqglc6o.glpk.glp'...
387348 lines were written
GLPK Integer Optimizer 5.0
85346 rows, 41622 columns, 197770 non-zeros
41622 integer variables, 41580 of which are binary
Preprocessing...
218 hidden packing inequaliti(es) were detected
14378 hidden covering inequaliti(es) were detected
98 constraint coefficient(s) were reduced
54725 rows, 21966 columns, 138337 non-zeros
21966 integer variables, 21925 of which are binary
Scaling...
 A: min|aij| =  1.000e+00  max|aij| =  6.000e+01  ratio =  6.000e+01
GM: min|aij| =  3.680e-01  max|aij| =  2.718e+00  ratio =  7.386e+00
EQ: min|aij| =  1.708e-01  max|aij| =  1.000e+00  ratio =  5.856e+00
2N: min|aij| =  1.250e-01  max|aij| =  1.438e+00  ratio =  1.150e+01
Constructing initial basis...
Size of triangular part is 54725
Solving LP relaxation...
GLPK Simplex Optimizer 5.0
54725 rows, 21966 columns, 138337 non-zeros
      0: obj =   0.000000000e+00 inf =   5.156e+01 (103)
Perturbing LP to avoid stalling [200]...
   2771: obj =   6.422214451e+00 inf =   3.234e-08 (0) 3
Removing LP perturbation [5184]...
*  5184: obj =   8.142820000e-01 inf =   7.120e-17 (0) 13
OPTIMAL LP SOLUTION FOUND
Integer optimization begins...
Long-step dual simplex will be used
+  5184: mip =     not found yet >=              -inf        (1; 0)
+  6523: mip =     not found yet >=   8.194743077e-01        (9; 0)
+  8216: mip =     not found yet >=   8.194743077e-01        (18; 0)
+  8414: mip =     not found yet >=   8.194743077e-01        (42; 0)
+ 10131: mip =     not found yet >=   8.194743077e-01        (54; 1)
+ 11285: mip =     not found yet >=   8.194743077e-01        (88; 2)
+ 12446: mip =     not found yet >=   8.194743077e-01        (123; 3)
+ 12814: >>>>>   1.061782000e+00 >=   8.194743077e-01  22.8% (132; 3)
+ 15051: mip =   1.061782000e+00 >=   8.249398947e-01  22.3% (31; 214)
+ 17023: mip =   1.061782000e+00 >=   8.441995824e-01  20.5% (36; 217)
+ 19306: mip =   1.061782000e+00 >=   8.532408824e-01  19.6% (36; 223)
+ 21445: mip =   1.061782000e+00 >=   8.605578182e-01  19.0% (41; 225)
+ 23685: mip =   1.061782000e+00 >=   8.632525882e-01  18.7% (44; 229)
Time used: 60.3 secs.  Memory used: 84.4 Mb.
+ 24316: mip =   1.061782000e+00 >=   8.649070000e-01  18.5% (44; 232)
+ 25371: mip =   1.061782000e+00 >=   8.666552647e-01  18.4% (48; 234)
+ 27099: mip =   1.061782000e+00 >=   8.817820000e-01  17.0% (49; 241)
+ 28865: mip =   1.061782000e+00 >=   8.854933402e-01  16.6% (57; 244)
+ 30911: mip =   1.061782000e+00 >=   8.959925263e-01  15.6% (61; 247)
+ 31962: mip =   1.061782000e+00 >=   8.992845345e-01  15.3% (65; 249)
+ 34456: mip =   1.061782000e+00 >=   9.131141492e-01  14.0% (65; 257)
+ 35154: mip =   1.061782000e+00 >=   9.218911282e-01  13.2% (66; 264)
+ 36993: mip =   1.061782000e+00 >=   9.386241053e-01  11.6% (65; 275)
+ 38001: mip =   1.061782000e+00 >=   9.492820000e-01  10.6% (66; 284)
+ 39334: mip =   1.061782000e+00 >=   9.601690968e-01   9.6% (66; 288)
Time used: 120.3 secs.  Memory used: 99.5 Mb.
+ 41137: mip =   1.061782000e+00 >=   9.907293684e-01   6.7% (58; 309)
+ 42733: mip =   1.061782000e+00 >=   1.012563250e+00   4.6% (48; 333)
+ 43357: mip =   1.061782000e+00 >=   1.029757778e+00   3.0% (37; 355)
+ 44692: mip =   1.061782000e+00 >=     tree is empty   0.0% (0; 515)
INTEGER OPTIMAL SOLUTION FOUND
Time used:   141.9 secs
Memory used: 114.1 Mb (119661286 bytes)
Writing MIP solution to '/tmp/tmpu55lys1g.glpk.raw'...
126977 lines were written

Results:

E = 1.061782 mA
C = 36.0 points
C ~= 14.4 km^2

Minimum Epsilon for this instance = 9
Maximum Epsilon for this instance = 96
Current Epsilon = 36

Instance Maximum Epsilon Preprocessing Time: 0.00454401969909668 s

Time in solver (for this epsilon): 142.2419457435608 s
Elapsed time (for this epsilon): 144.9373209476471 s


Total elapsed time since execution of first epsilon: 132832.25096440315 s


Updated solution vectors:
sol_E = [0.611782,1.061782,1.061782,1.061782]
sol_C = [12.0,45.0,27.0,36.0]
sol_eps = [9,18,27,36]
